6438503045710045158505,15,1,2,013,2,1,2,06,15,1,2,03,3,1,2,014,9,1,2,05,14,1,2,06,7,1,2,011,10,1,2,010,7,1,2,01,2,1,2,05,5,1,2,014,15,1,2,03,10,1,2,03,9,1,2,08,4,1,2,010,2,1,2,011,12,1,2,015,6,1,2,010,12,1,2,06,4,1,2,012,4,1,2,08,15,1,2,01,3,1,2,08,6,1,2,014,3,1,2,02,7,1,2,04,11,1,2,015,12,1,2,010,8,1,2,013,12,1,2,014,4,1,2,04,9,1,2,012,7,1,2,05,4,1,2,013,1,1,2,014,11,1,2,08,8,1,2,02,9,1,2,04,7,1,2,07,8,1,2,015,6,1,2,05,13,1,2,07,10,1,2,010,5,1,2,015,10,1,2,03,5,1,2,07,13,1,2,02,7,1,2,04,14,1,2,012,8,1,2,0